
Gurobi 8.1.1 (mac64, Python) logging started Wed Feb 26 08:52:12 2020

Academic license - for non-commercial use only

Gurobi 8.1.1 (mac64, Python) logging started Wed Feb 26 08:53:04 2020

Academic license - for non-commercial use only

Gurobi 8.1.1 (mac64, Python) logging started Wed Feb 26 08:55:32 2020

Academic license - for non-commercial use only

Gurobi 8.1.1 (mac64, Python) logging started Wed Feb 26 09:33:53 2020

Academic license - for non-commercial use only

Gurobi 8.1.1 (mac64, Python) logging started Tue Mar  3 08:32:46 2020

Academic license - for non-commercial use only

Gurobi 8.1.1 (mac64, Python) logging started Tue Mar  3 08:45:29 2020

Academic license - for non-commercial use only

Gurobi 8.1.1 (mac64, Python) logging started Tue Mar  3 08:46:34 2020

Academic license - for non-commercial use only

Gurobi 8.1.1 (mac64, Python) logging started Tue Mar  3 08:53:01 2020

Academic license - for non-commercial use only

Gurobi 8.1.1 (mac64, Python) logging started Tue Mar  3 09:08:40 2020

Academic license - for non-commercial use only

Gurobi 8.1.1 (mac64, Python) logging started Tue Mar  3 09:26:55 2020

Academic license - for non-commercial use only

Gurobi 8.1.1 (mac64, Python) logging started Tue Mar  3 09:27:14 2020

Academic license - for non-commercial use only

Gurobi 8.1.1 (mac64, Python) logging started Tue Mar  3 09:46:25 2020

Academic license - for non-commercial use only

Gurobi 8.1.1 (mac64, Python) logging started Tue Mar  3 09:46:50 2020

Academic license - for non-commercial use only

Gurobi 8.1.1 (mac64, Python) logging started Tue Mar  3 09:47:04 2020

Academic license - for non-commercial use only

Gurobi 8.1.1 (mac64, Python) logging started Tue Mar  3 09:47:17 2020

Academic license - for non-commercial use only

Gurobi 8.1.1 (mac64, Python) logging started Tue Mar  3 09:47:42 2020

Academic license - for non-commercial use only

Gurobi 8.1.1 (mac64, Python) logging started Tue Mar  3 09:49:52 2020

Academic license - for non-commercial use only

Gurobi 8.1.1 (mac64, Python) logging started Tue Mar  3 10:00:41 2020

Academic license - for non-commercial use only

Gurobi 8.1.1 (mac64, Python) logging started Tue Mar  3 10:01:03 2020

Academic license - for non-commercial use only

Gurobi 8.1.1 (mac64, Python) logging started Tue Mar  3 10:02:06 2020

Academic license - for non-commercial use only
